data;
param n:=100;
param w:=1 458 2 -451 3 -84 4 30 5 365 6 -198 7 -232 8 187 9 -460 10 314 11 93 12 382 13 342 14 -127 15 469 16 -99 17 134 18 340 19 -154 20 316 21 143 22 406 23 -266 24 -212 25 380 26 189 27 156 28 -195 29 -58 30 -47 31 -143 32 -329 33 -360 34 -5 35 -321 36 -246 37 -163 38 -432 39 -12 40 -160 41 342 42 91 43 442 44 196 45 302 46 431 47 -243 48 -54 49 118 50 -414 51 225 52 93 53 -24 54 -379 55 -327 56 454 57 -2 58 267 59 -206 60 -115 61 337 62 -97 63 -454 64 -291 65 365 66 90 67 -495 68 -15 69 -313 70 -16 71 482 72 109 73 -508 74 -177 75 -18 76 -26 77 299 78 40 79 26 80 363 81 -245 82 316 83 452 84 -260 85 -208 86 -52 87 276 88 -422 89 223 90 -343 91 -365 92 73 93 -235 94 269 95 2 96 60 97 -196 98 309 99 -226 100 -276;
